
n_res = 8;
rcap = [113, 115, 121, 109, 729, 676, 644, 762];
rtype = [1, 1, 1, 1, 2, 2, 2, 2];
n_tasks = 50;
modes =  [{1, 2, 3, 4, 5, 6}, {7, 8, 9, 10, 11, 12}, {13, 14, 15, 16, 17, 18}, {19, 20, 21, 22, 23, 24}, {25, 26, 27, 28, 29, 30}, {31, 32, 33, 34, 35, 36}, {37, 38, 39, 40, 41, 42}, {43, 44, 45, 46, 47, 48}, {49, 50, 51, 52, 53, 54}, {55, 56, 57, 58, 59, 60}, {61, 62, 63, 64, 65, 66}, {67, 68, 69, 70, 71, 72}, {73, 74, 75, 76, 77, 78}, {79, 80, 81, 82, 83, 84}, {85, 86, 87, 88, 89, 90}, {91, 92, 93, 94, 95, 96}, {97, 98, 99, 100, 101, 102}, {103, 104, 105, 106, 107, 108}, {109, 110, 111, 112, 113, 114}, {115, 116, 117, 118, 119, 120}, {121, 122, 123, 124, 125, 126}, {127, 128, 129, 130, 131, 132}, {133, 134, 135, 136, 137, 138}, {139, 140, 141, 142, 143, 144}, {145, 146, 147, 148, 149, 150}, {151, 152, 153, 154, 155, 156}, {157, 158, 159, 160, 161, 162}, {163, 164, 165, 166, 167, 168}, {169, 170, 171, 172, 173, 174}, {175, 176, 177, 178, 179, 180}, {181, 182, 183, 184, 185, 186}, {187, 188, 189, 190, 191, 192}, {193, 194, 195, 196, 197, 198}, {199, 200, 201, 202, 203, 204}, {205, 206, 207, 208, 209, 210}, {211, 212, 213, 214, 215, 216}, {217, 218, 219, 220, 221, 222}, {223, 224, 225, 226, 227, 228}, {229, 230, 231, 232, 233, 234}, {235, 236, 237, 238, 239, 240}, {241, 242, 243, 244, 245, 246}, {247, 248, 249, 250, 251, 252}, {253, 254, 255, 256, 257, 258}, {259, 260, 261, 262, 263, 264}, {265, 266, 267, 268, 269, 270}, {271, 272, 273, 274, 275, 276}, {277, 278, 279, 280, 281, 282}, {283, 284, 285, 286, 287, 288}, {289, 290, 291, 292, 293, 294}, {295, 296, 297, 298, 299, 300}];
succ =  [{48, 25, 16, 7, 3}, {49, 48, 45, 42, 32, 7}, {50, 45, 44, 43, 42, 40, 39, 34, 29, 26, 24, 22}, {47, 45, 44, 43, 40, 39, 31, 30, 29, 24, 22}, {49, 48, 47, 45, 42, 41, 36, 33, 29, 26, 20}, {50, 49, 44, 43, 41, 40, 38, 36, 32, 30, 29, 26}, {44, 43, 40, 39, 31, 30, 29, 24, 22}, {46, 44, 43, 42, 40, 39, 37, 36, 34, 27, 22}, {46, 43, 42, 40, 39, 36, 34, 29, 26, 22}, {47, 45, 43, 42, 39, 37, 36, 31, 30, 22}, {46, 45, 44, 40, 38, 36, 30, 28, 27, 26}, {43, 42, 39, 29, 16}, {49, 48, 40, 38, 36, 34, 30, 29, 27}, {48, 39, 36, 30, 28, 22}, {50, 49, 40, 39, 38, 37, 36, 35, 30}, {46, 45, 40, 38, 36, 34, 33, 26}, {48, 40, 39, 30, 29}, {47, 39, 38, 33, 32}, {47, 36, 30, 29}, {46, 44, 39, 35, 34}, {40, 39, 36, 35, 33}, {41, 38, 35, 33}, {41, 37, 36, 34}, {36, 35, 33}, {47, 36, 34}, {37, 35}, {35, 33}, {42, 34}, {37}, {33}, {34}, {34}, {}, {}, {}, {}, {}, {}, {}, {}, {}, {}, {}, {}, {}, {}, {}, {}, {}, {}];
n_opt = 300;
dur = [2, 21, 22, 25, 26, 28, 19, 20, 21, 22, 23, 28, 3, 8, 10, 15, 22, 28, 2, 3, 5, 13, 18, 29, 5, 6, 11, 14, 15, 28, 2, 12, 21, 22, 26, 30, 5, 18, 19, 23, 28, 29, 4, 14, 17, 18, 28, 29, 6, 7, 8, 12, 19, 29, 3, 5, 7, 8, 18, 22, 4, 5, 11, 17, 24, 25, 3, 6, 13, 16, 23, 28, 1, 14, 17, 24, 27, 28, 2, 4, 13, 28, 29, 30, 8, 11, 12, 26, 27, 28, 10, 13, 14, 21, 24, 27, 3, 5, 17, 19, 24, 28, 5, 7, 17, 18, 22, 25, 1, 8, 11, 12, 13, 25, 11, 12, 13, 15, 20, 22, 2, 6, 9, 10, 15, 29, 7, 8, 16, 17, 18, 26, 1, 15, 19, 20, 23, 29, 6, 12, 18, 19, 20, 25, 8, 11, 16, 18, 21, 27, 2, 14, 18, 19, 21, 30, 8, 9, 10, 12, 13, 30, 11, 12, 13, 16, 23, 29, 1, 6, 9, 20, 27, 30, 1, 7, 8, 20, 26, 28, 10, 13, 18, 19, 28, 29, 7, 8, 9, 12, 14, 17, 3, 5, 13, 21, 23, 25, 1, 2, 8, 16, 21, 23, 5, 6, 15, 23, 26, 30, 2, 4, 11, 20, 21, 25, 2, 3, 9, 12, 19, 20, 5, 7, 13, 14, 16, 18, 1, 5, 11, 12, 22, 27, 4, 9, 18, 24, 25, 30, 1, 16, 17, 24, 26, 27, 1, 4, 14, 27, 28, 29, 5, 14, 22, 23, 26, 29, 7, 8, 15, 27, 29, 30, 4, 5, 10, 12, 13, 24, 5, 12, 17, 20, 22, 23, 2, 14, 15, 24, 27, 28, 4, 17, 18, 19, 25, 27, 1, 3, 6, 7, 16, 23, 8, 13, 18, 19, 28, 30];
rreq = [|29, 26, 24, 21, 18, 17, 24, 21, 18, 14, 12, 9, 5, 5, 4, 4, 3, 2, 16, 16, 16, 16, 16, 16, 24, 19, 18, 13, 10, 10, 23, 20, 16, 13, 9, 9, 26, 24, 23, 19, 17, 16, 21, 20, 17, 13, 13, 9, 20, 19, 18, 16, 15, 15, 29, 29, 29, 29, 29, 29, 12, 11, 10, 9, 7, 7, 16, 15, 15, 15, 14, 14, 17, 15, 13, 11, 9, 6, 22, 18, 17, 14, 13, 12, 26, 22, 21, 18, 16, 14, 16, 16, 15, 15, 14, 14, 18, 14, 12, 8, 7, 5, 23, 21, 21, 17, 14, 12, 10, 10, 9, 9, 9, 8, 18, 16, 13, 10, 7, 3, 22, 19, 17, 12, 8, 4, 12, 10, 7, 6, 4, 4, 13, 11, 8, 6, 4, 4, 21, 19, 19, 19, 18, 17, 28, 23, 22, 17, 17, 13, 25, 23, 19, 14, 9, 8, 12, 11, 8, 7, 6, 4, 20, 18, 14, 11, 9, 7, 26, 26, 20, 16, 13, 12, 21, 19, 18, 13, 11, 8, 23, 21, 18, 17, 14, 11, 12, 12, 12, 11, 11, 11, 26, 24, 23, 20, 16, 16, 26, 20, 16, 14, 7, 1, 11, 9, 7, 5, 3, 2, 29, 24, 23, 21, 17, 15, 18, 14, 11, 11, 8, 7, 22, 19, 19, 18, 17, 16, 18, 18, 18, 17, 17, 16, 27, 22, 22, 16, 16, 10, 20, 18, 18, 18, 16, 16, 29, 22, 17, 10, 6, 4, 22, 18, 18, 9, 9, 4, 13, 9, 8, 6, 3, 1, 20, 17, 17, 13, 11, 10, 8, 8, 7, 5, 4, 4, 22, 21, 19, 15, 9, 9, 19, 18, 17, 17, 17, 16, 12, 12, 12, 12, 12, 12, 18, 17, 16, 15, 14, 14
 |15, 13, 12, 11, 11, 9, 28, 26, 26, 26, 24, 24, 26, 26, 22, 16, 14, 9, 14, 13, 11, 8, 6, 3, 27, 26, 26, 26, 25, 25, 25, 25, 25, 25, 24, 24, 23, 18, 18, 12, 10, 4, 12, 11, 9, 7, 4, 2, 18, 16, 12, 10, 6, 4, 24, 22, 21, 20, 19, 16, 20, 19, 19, 18, 16, 15, 19, 17, 14, 13, 11, 8, 22, 16, 15, 12, 6, 5, 23, 23, 23, 23, 23, 23, 28, 27, 27, 27, 27, 27, 25, 23, 22, 22, 20, 20, 17, 16, 15, 13, 11, 10, 16, 14, 13, 11, 10, 9, 24, 21, 18, 16, 12, 10, 21, 18, 14, 12, 9, 6, 11, 10, 10, 9, 9, 9, 26, 22, 20, 14, 14, 8, 27, 27, 27, 26, 26, 26, 7, 7, 7, 7, 7, 7, 30, 28, 26, 23, 20, 20, 25, 21, 21, 19, 16, 16, 25, 25, 24, 23, 23, 22, 30, 27, 24, 22, 18, 16, 16, 12, 10, 7, 7, 5, 20, 19, 19, 19, 19, 19, 19, 17, 16, 16, 15, 14, 21, 17, 16, 14, 12, 11, 22, 22, 22, 22, 22, 22, 6, 5, 5, 5, 5, 5, 16, 13, 11, 11, 9, 6, 24, 24, 23, 20, 19, 18, 14, 14, 12, 12, 10, 10, 20, 17, 14, 11, 9, 6, 23, 22, 21, 20, 20, 18, 26, 25, 24, 24, 23, 23, 13, 12, 9, 8, 4, 4, 22, 19, 18, 17, 14, 12, 20, 18, 15, 14, 11, 6, 8, 6, 6, 5, 4, 2, 18, 18, 13, 11, 8, 5, 28, 25, 21, 20, 16, 14, 6, 5, 5, 4, 3, 2, 22, 20, 19, 18, 17, 17, 23, 18, 17, 14, 12, 10, 21, 18, 15, 10, 7, 5
 |30, 28, 26, 25, 23, 21, 23, 23, 22, 20, 20, 19, 22, 22, 20, 17, 14, 12, 6, 6, 4, 3, 3, 1, 29, 29, 28, 27, 26, 25, 23, 19, 16, 11, 5, 1, 22, 20, 15, 9, 7, 3, 16, 14, 13, 11, 11, 8, 25, 25, 22, 19, 19, 17, 22, 21, 18, 17, 13, 13, 12, 10, 10, 8, 6, 5, 27, 25, 22, 21, 20, 18, 18, 17, 13, 11, 6, 5, 28, 22, 19, 18, 14, 11, 27, 26, 26, 24, 24, 23, 16, 14, 13, 10, 7, 6, 24, 23, 17, 11, 10, 4, 17, 17, 15, 14, 13, 11, 13, 12, 10, 9, 8, 7, 26, 26, 26, 26, 25, 25, 27, 21, 17, 12, 10, 6, 27, 25, 24, 23, 23, 22, 28, 22, 20, 18, 14, 9, 27, 27, 26, 24, 23, 23, 25, 20, 20, 17, 13, 13, 16, 16, 15, 13, 12, 12, 28, 28, 27, 26, 25, 24, 17, 16, 16, 15, 14, 14, 30, 25, 23, 19, 13, 12, 21, 20, 18, 16, 13, 12, 25, 22, 21, 20, 18, 18, 19, 17, 14, 11, 10, 6, 19, 15, 12, 10, 7, 6, 14, 9, 7, 5, 3, 2, 17, 16, 16, 16, 16, 16, 18, 16, 14, 14, 12, 10, 13, 13, 11, 10, 10, 9, 26, 25, 23, 22, 22, 20, 24, 22, 19, 18, 17, 14, 18, 16, 13, 11, 6, 4, 14, 14, 13, 13, 12, 11, 17, 14, 13, 10, 9, 6, 25, 22, 21, 21, 19, 19, 20, 18, 18, 17, 16, 15, 28, 28, 27, 26, 26, 25, 7, 6, 6, 6, 5, 4, 22, 21, 21, 21, 21, 21, 22, 21, 14, 10, 7, 4, 25, 23, 18, 16, 14, 13, 23, 22, 22, 21, 21, 21
 |23, 22, 21, 21, 19, 19, 25, 22, 19, 16, 11, 3, 30, 26, 20, 18, 15, 13, 11, 10, 8, 7, 6, 6, 20, 16, 13, 12, 10, 7, 9, 7, 6, 5, 3, 2, 18, 18, 17, 17, 15, 15, 29, 26, 26, 23, 23, 20, 19, 16, 15, 14, 12, 12, 13, 12, 11, 10, 9, 8, 21, 20, 20, 20, 19, 19, 23, 23, 21, 20, 20, 19, 24, 18, 16, 13, 11, 4, 8, 7, 7, 7, 7, 7, 24, 24, 23, 21, 20, 20, 19, 15, 13, 10, 4, 3, 16, 14, 13, 13, 12, 11, 29, 27, 27, 26, 25, 23, 12, 10, 10, 10, 8, 8, 21, 19, 16, 13, 11, 10, 18, 17, 16, 16, 15, 14, 29, 23, 20, 20, 16, 14, 24, 17, 14, 12, 11, 7, 6, 6, 6, 5, 5, 5, 24, 21, 18, 14, 10, 7, 10, 8, 6, 6, 3, 2, 14, 13, 13, 12, 12, 12, 20, 16, 15, 13, 11, 10, 20, 19, 17, 16, 16, 14, 27, 26, 25, 24, 23, 23, 25, 25, 23, 21, 21, 19, 28, 22, 22, 18, 15, 12, 6, 5, 5, 5, 4, 4, 9, 7, 7, 6, 5, 3, 4, 4, 4, 4, 4, 4, 14, 14, 11, 9, 6, 5, 19, 18, 18, 17, 16, 16, 30, 28, 27, 25, 25, 23, 26, 25, 24, 20, 18, 17, 27, 24, 21, 19, 13, 11, 22, 21, 20, 19, 18, 18, 10, 7, 6, 5, 4, 3, 24, 20, 19, 16, 10, 6, 24, 22, 21, 18, 14, 11, 15, 14, 14, 11, 10, 9, 15, 14, 13, 12, 10, 9, 24, 24, 24, 23, 23, 23, 25, 22, 19, 18, 14, 13, 27, 26, 23, 22, 18, 16, 9, 8, 8, 7, 5, 4
 |24, 24, 24, 24, 24, 24, 14, 14, 13, 10, 8, 7, 24, 24, 23, 20, 20, 19, 21, 20, 16, 15, 12, 8, 30, 28, 28, 28, 26, 26, 24, 22, 20, 19, 18, 17, 11, 10, 10, 10, 10, 10, 11, 11, 9, 8, 8, 7, 21, 19, 19, 17, 15, 14, 8, 7, 6, 4, 4, 2, 28, 28, 24, 22, 22, 19, 18, 18, 18, 17, 17, 16, 27, 22, 18, 16, 13, 11, 26, 24, 20, 18, 16, 15, 5, 5, 4, 3, 1, 1, 21, 19, 17, 14, 11, 11, 25, 23, 22, 21, 20, 20, 11, 11, 11, 11, 11, 11, 21, 19, 19, 18, 18, 17, 16, 14, 14, 14, 12, 12, 19, 19, 17, 17, 16, 15, 27, 25, 23, 20, 18, 17, 27, 25, 24, 21, 21, 19, 29, 28, 28, 28, 28, 28, 23, 19, 19, 15, 15, 13, 18, 18, 15, 11, 8, 6, 27, 22, 19, 15, 7, 6, 17, 15, 14, 12, 11, 9, 24, 22, 18, 15, 9, 7, 26, 23, 22, 21, 19, 16, 17, 14, 13, 7, 6, 3, 28, 22, 20, 18, 12, 11, 24, 23, 22, 21, 21, 20, 11, 9, 8, 7, 7, 6, 13, 11, 9, 7, 4, 3, 29, 26, 25, 23, 18, 16, 24, 23, 19, 18, 16, 13, 17, 14, 14, 10, 7, 7, 25, 20, 18, 15, 10, 8, 27, 27, 21, 21, 15, 15, 23, 19, 15, 12, 8, 6, 26, 26, 23, 22, 18, 18, 5, 3, 3, 2, 2, 1, 20, 19, 15, 14, 12, 8, 30, 25, 23, 21, 19, 18, 24, 23, 19, 17, 16, 15, 29, 27, 26, 24, 23, 20, 26, 21, 15, 11, 8, 5, 14, 14, 10, 10, 8, 5, 27, 27, 24, 21, 19, 17
 |8, 8, 8, 7, 7, 6, 28, 25, 23, 19, 17, 14, 18, 16, 14, 12, 11, 9, 16, 13, 13, 9, 8, 7, 8, 8, 8, 7, 7, 6, 29, 24, 21, 18, 15, 13, 13, 9, 7, 6, 4, 2, 16, 15, 13, 13, 11, 10, 18, 18, 18, 18, 18, 18, 27, 27, 27, 27, 27, 27, 19, 18, 14, 14, 12, 8, 5, 5, 5, 5, 5, 5, 23, 23, 18, 15, 10, 7, 29, 29, 29, 28, 28, 28, 20, 20, 17, 15, 15, 12, 28, 21, 16, 11, 6, 4, 26, 25, 24, 22, 21, 20, 27, 21, 19, 17, 11, 4, 22, 20, 18, 17, 15, 12, 28, 24, 16, 13, 10, 5, 21, 16, 14, 11, 8, 6, 27, 22, 21, 16, 13, 10, 18, 17, 13, 11, 10, 9, 26, 24, 23, 21, 20, 18, 28, 21, 15, 10, 6, 3, 6, 4, 4, 3, 1, 1, 30, 25, 24, 20, 20, 15, 28, 26, 24, 23, 21, 19, 17, 16, 14, 13, 11, 10, 28, 27, 26, 26, 25, 24, 6, 5, 5, 5, 5, 5, 26, 26, 25, 24, 23, 21, 6, 6, 5, 3, 2, 2, 28, 25, 22, 19, 19, 15, 17, 16, 15, 14, 13, 13, 16, 13, 13, 10, 8, 6, 6, 6, 6, 6, 6, 6, 25, 24, 24, 23, 23, 23, 20, 19, 17, 16, 14, 12, 15, 15, 15, 15, 15, 15, 12, 10, 8, 6, 4, 2, 17, 17, 17, 16, 16, 16, 23, 18, 17, 12, 12, 8, 26, 24, 24, 24, 23, 22, 23, 22, 21, 18, 18, 17, 20, 19, 17, 15, 14, 12, 15, 15, 14, 12, 12, 10, 26, 20, 18, 13, 7, 7, 18, 18, 17, 17, 17, 16, 16, 14, 12, 12, 10, 9
 |23, 19, 17, 15, 12, 10, 30, 24, 21, 20, 15, 12, 23, 23, 21, 21, 19, 18, 15, 12, 9, 8, 5, 4, 27, 27, 26, 26, 26, 25, 12, 10, 9, 9, 6, 6, 18, 14, 13, 9, 9, 5, 24, 23, 22, 19, 17, 17, 12, 11, 10, 10, 10, 9, 8, 8, 8, 8, 8, 8, 24, 20, 15, 10, 9, 2, 26, 22, 21, 18, 18, 16, 22, 20, 17, 14, 11, 9, 25, 18, 16, 15, 8, 6, 22, 20, 17, 15, 13, 13, 29, 28, 25, 24, 22, 21, 23, 18, 18, 13, 11, 9, 10, 10, 10, 10, 10, 10, 14, 10, 8, 6, 4, 3, 24, 23, 18, 12, 9, 4, 19, 17, 16, 15, 12, 12, 21, 18, 16, 13, 11, 10, 26, 24, 20, 14, 9, 8, 15, 14, 12, 11, 7, 7, 13, 13, 12, 10, 10, 8, 18, 14, 10, 7, 3, 3, 20, 20, 20, 20, 20, 20, 12, 11, 11, 11, 11, 11, 28, 24, 23, 22, 21, 18, 16, 14, 13, 11, 8, 8, 20, 17, 14, 9, 6, 5, 24, 20, 18, 16, 11, 11, 20, 19, 16, 15, 14, 11, 8, 5, 5, 3, 3, 1, 28, 28, 27, 26, 24, 24, 10, 10, 8, 7, 4, 3, 16, 16, 16, 16, 16, 16, 7, 6, 6, 6, 6, 6, 25, 24, 24, 23, 23, 23, 26, 23, 18, 16, 10, 8, 24, 23, 21, 19, 17, 15, 20, 19, 19, 18, 18, 17, 12, 9, 9, 7, 6, 5, 19, 19, 18, 16, 16, 14, 24, 24, 20, 11, 7, 6, 27, 24, 24, 22, 21, 19, 26, 26, 24, 23, 22, 22, 14, 13, 13, 12, 9, 9, 10, 10, 9, 8, 5, 4, 10, 8, 7, 6, 6, 5
 |28, 26, 22, 21, 19, 18, 10, 10, 9, 7, 6, 6, 20, 20, 20, 20, 20, 20, 26, 23, 20, 20, 15, 14, 23, 22, 22, 22, 21, 21, 23, 22, 20, 20, 17, 16, 30, 27, 26, 24, 20, 18, 14, 12, 11, 11, 9, 9, 23, 19, 17, 13, 7, 5, 23, 23, 23, 22, 22, 21, 12, 10, 10, 9, 8, 8, 26, 23, 20, 16, 11, 10, 25, 23, 22, 18, 14, 11, 15, 14, 12, 11, 11, 10, 3, 2, 2, 2, 2, 2, 24, 23, 19, 17, 12, 11, 25, 24, 21, 19, 17, 13, 19, 17, 16, 15, 14, 14, 26, 22, 21, 16, 12, 10, 8, 8, 7, 5, 5, 3, 25, 25, 25, 24, 24, 23, 15, 13, 11, 7, 5, 4, 25, 23, 21, 21, 20, 18, 18, 18, 18, 17, 17, 17, 1, 1, 1, 1, 1, 1, 24, 23, 22, 21, 21, 20, 27, 25, 24, 24, 22, 22, 24, 20, 20, 19, 16, 14, 28, 25, 20, 19, 17, 11, 16, 15, 15, 15, 15, 15, 27, 25, 25, 22, 20, 19, 29, 28, 27, 27, 26, 25, 17, 17, 16, 15, 14, 13, 30, 25, 23, 18, 15, 13, 15, 14, 13, 13, 13, 12, 30, 21, 17, 15, 11, 6, 23, 22, 19, 15, 14, 11, 29, 29, 29, 29, 29, 29, 25, 25, 19, 19, 14, 12, 19, 19, 18, 16, 16, 15, 30, 28, 25, 25, 22, 21, 30, 29, 29, 28, 28, 28, 28, 24, 22, 18, 16, 14, 25, 22, 22, 18, 16, 14, 11, 10, 10, 8, 6, 5, 25, 23, 19, 18, 15, 12, 16, 13, 12, 8, 8, 5, 14, 11, 9, 6, 4, 2, 24, 19, 15, 11, 7, 5, 21, 19, 19, 18, 15, 13|];